S = 4;
start = [|13,11,0,0,0,0,10,7,0,0,0,0,0,0,0,0|
0,12,0,0,0,0,0,0,0,0,0,0,0,0,0,0|
0,0,0,0,3,0,0,0,0,0,0,0,0,6,0,0|
0,0,0,0,9,12,0,0,0,0,0,0,0,0,0,0|
0,0,0,0,0,0,15,12,5,0,0,0,0,0,0,1|
0,0,0,6,0,10,0,0,0,3,0,0,0,2,0,0|
0,0,0,0,0,0,0,0,0,0,0,0,15,0,0,4|
0,0,0,0,0,0,0,2,8,0,6,11,0,0,0,0|
0,5,6,0,4,0,0,0,0,0,0,0,0,1,0,8|
2,10,0,0,0,0,0,5,0,6,1,0,0,0,0,0|
0,0,3,0,0,0,0,0,10,12,0,0,0,0,0,0|
0,0,0,0,0,0,0,10,0,0,0,4,12,3,0,0|
0,0,0,0,0,0,0,0,0,2,0,16,0,11,0,0|
9,0,11,0,0,0,0,4,13,0,5,0,16,0,6,0|
0,0,0,0,14,0,0,0,0,15,12,0,0,0,0,0|
0,2,0,0,0,0,0,0,6,0,4,0,13,7,0,5|];